Minimize

10.0 x_0 + 3.0 x_1 + 1.5 x_2 + 5.0 x_3


Subject To

a0: y_0 + y_1 <= 1
b0: 1 x_0 + 1 x_1 + 0 x_2 + 0 x_3 >= 1
b1: 1 x_0 + 0 x_1 + 0 x_2 + 0 x_3 >= 1
b2: 1 x_0 + 0 x_1 + 0 x_2 + 0 x_3 >= 1
b3: 1 x_0 + 1 x_1 + 0 x_2 + 0 x_3 >= 1
b4: 0 x_0 + 0 x_1 + 1 x_2 + 1 x_3 >= 1
c0: y_1 - x_3
d0: 1 >= 0
d1: 0 >= 0
d2: 1 >= 0
d3: 0 >= 0
d4: 0 >= 0
d5: 1 >= 0
d6: 1 >= 0
d7: 0 >= 0




Binary

y_0 y_1 x_0 x_1 x_2 x_3

 


End
